sat
(:max-memory         18.42
 :memory             18.33
 :nlsat-arith-var    3
 :nlsat-atoms        10
 :nlsat-bool-var     1
 :nlsat-clauses      9
 :nlsat-propagations 7
 :nlsat-stages       4
 :num-allocs         51054
 :rlimit-count       2015
 :time               0.00
 :total-time         0.01)
